Version identifier: 20.1.0.0 | 2020-11-10 | 9bedb6d68
CPXPARAM_Threads                                 1
CPXPARAM_TimeLimit                               7200
CPXPARAM_MIP_Tolerances_MIPGap                   0
Generic callback                                 0x60
1 of 1 MIP starts provided solutions.
MIP start 'm1' defined initial solution with objective 1396.1063.
Tried aggregator 1 time.
Reduced MIP has 501001 rows, 500501 columns, and 1500500 nonzeros.
Reduced MIP has 500 binaries, 0 generals, 0 SOSs, and 0 indicators.
Presolve time = 0.46 sec. (400.65 ticks)
Probing time = 0.06 sec. (62.52 ticks)
Tried aggregator 1 time.
Reduced MIP has 501001 rows, 500501 columns, and 1500500 nonzeros.
Reduced MIP has 500 binaries, 0 generals, 0 SOSs, and 0 indicators.
Presolve time = 0.45 sec. (392.53 ticks)
Probing time = 0.06 sec. (62.52 ticks)
MIP emphasis: balance optimality and feasibility.
MIP search method: dynamic search.
Parallel mode: none, using 1 thread.
Root relaxation solution time = 0.18 sec. (192.92 ticks)

        Nodes                                         Cuts/
   Node  Left     Objective  IInf  Best Integer    Best Bound    ItCnt     Gap

*     0+    0                         1396.1063     5432.0000           289.08%
      0     0     1456.4967     6     1396.1063     5432.0000        0  289.08%
      0     2     1456.4967     6     1396.1063     1456.4966        0    4.33%
Elapsed time = 2121.03 sec. (1665320.42 ticks, tree = 0.01 MB, solutions = 1)
      1     1        cutoff           1396.1063     1456.4951     2103    4.33%
      2     2     1401.8026     8     1396.1063     1401.8026    59529    0.41%
      3     3     1401.6361     8     1396.1063     1401.8016    60162    0.41%
      4     2        cutoff           1396.1063     1401.6357    66470    0.40%
      5     3     1398.8862     2     1396.1063     1401.6349    87347    0.40%
*     6     2      integral     0     1398.5625     1401.6349    93940    0.22%
      6     2     1398.5625     0     1398.5625     1401.6349    93940    0.22%
      7     1        cutoff           1398.5625     1401.6349    94877    0.22%
      8     2     1401.2664     6     1398.5625     1401.2664    98504    0.19%
      9     1        cutoff           1398.5625     1401.2661   107090    0.19%
     10     2     1399.3812     8     1398.5625     1399.3811   115534    0.06%
Elapsed time = 5427.99 sec. (4171338.15 ticks, tree = 0.01 MB, solutions = 2)
     11     1        cutoff           1398.5625     1399.3810   126440    0.06%
     12     0        cutoff           1398.5625     1398.5625   132331    0.00%

User cuts applied:  20

Root node processing (before b&c):
  Real time             = 2120.93 sec. (1665240.69 ticks)
Sequential b&c:
  Real time             = 3567.79 sec. (2729990.82 ticks)
                          ------------
Total (root+branch&cut) = 5688.72 sec. (4395231.51 ticks)
@Parameters: 
is_S_cut                                true
is_add_all_yinF                         true
is_start_value                          true
is_usercut                              true
is_visualization                        false
uc_only_rootnode                        false

data                                    Qi
fn                                      data/Qi/instance_1000_500.csv
mode                                    ZLP
solver                                  cplex

p                                       2
r                                       10

EPS                                     1.0e-06
EPS_vio                                 1.0e-04
beta                                    0.10
gap                                     0.00
nodelimit                               Inf
timelimit                               7200.00


@PrintInfos
ItCnt: 132331
Current gap: 0.00 %
Termination Status: OPTIMAL
Primal Status: FEASIBLE_POINT
Solve Time: 5688.72 sec
Objective Value: 1398.562484
Number of Nodes:     13

CutInfo: [phase] num / time (sec) 
ZLP             [phase1]     0 / 0.00 [rLC]     4 / 14.42 [rUC]     2 / 4.78 [sLC]     1 / 5.07 [sUC]    17 / 88.90 
OldSubmodular   [phase1]     0 / 0.00 [rLC]     0 / 0.00 [rUC]     0 / 0.00 [sLC]     0 / 0.00 [sUC]     0 / 0.00 
NewSubmodular   [phase1]     0 / 0.00 [rLC]     0 / 0.00 [rUC]     0 / 0.00 [sLC]     0 / 0.00 [sUC]     0 / 0.00 
PMP             [phase1]     0 / 0.00 [rLC]     5 / 10.73 [rUC]     2 / 2.99 [sLC]     2 / 4.26 [sUC]    27 / 63.93 
Separation Round: [phase1] 0  [rLC] 5  [rUC] 2  [sLC] 2  [sUC] 27
Root Best Bound 1401.802551
Root Best Integer: 1396.106273
Best Bound: 1398.562484
Best Integer: 1398.562484

